c preprocessed version of ship-ship, 24 vertices, 65 edges
p td 24 65
1 0
14 0
3 0
19 0
1 2
1 6
1 9
10 1
14 1
13 1
16 1
17 1
3 2
20 2
13 2
4 3
19 3
20 3
17 3
4 5
16 4
12 4
17 4
5 6
5 9
7 5
8 5
16 5
12 5
7 6
8 7
7 18
8 9
8 18
10 9
11 10
15 10
12 11
11 14
15 11
12 13
12 14
16 12
15 12
15 14
15 16
15 17
17 16
18 19
18 20
20 19
21 23
21 1
21 6
21 22
22 23
22 13
22 12
22 15
23 3
23 4
23 11
23 10
23 17
23 15
